\* ProcEng *\
Maximize
OBJ: 0.028 CHEMICALS_x10 - 0.025 CHEMICALS_x11 - 0.015 CHEMICALS_x12
 - 0.025 CHEMICALS_x7 + 0.025 CHEMICALS_x8 + 0.028 CHEMICALS_x9
Subject To
_C1: 0.5 CHEMICALS_x10 - CHEMICALS_x11 + 0.666666666667 CHEMICALS_x8
 + 0.666666666667 CHEMICALS_x9 = 0
_C2: 0.166666666667 CHEMICALS_x10 - CHEMICALS_x12
 + 0.333333333333 CHEMICALS_x8 + 0.333333333333 CHEMICALS_x9 = 0
_C3: 0.333333333333 CHEMICALS_x10 - CHEMICALS_x7 = 0
_C4: CHEMICALS_x11 <= 40000
_C5: CHEMICALS_x12 <= 30000
_C6: CHEMICALS_x7 <= 25000
Bounds
0 <= CHEMICALS_x10
0 <= CHEMICALS_x11
0 <= CHEMICALS_x12
0 <= CHEMICALS_x7
0 <= CHEMICALS_x8
0 <= CHEMICALS_x9
Generals
CHEMICALS_x10
CHEMICALS_x11
CHEMICALS_x12
CHEMICALS_x7
CHEMICALS_x8
CHEMICALS_x9
End
